p cnf 232 1136
-186 -187 0
-1 -2 0
-3 -4 0
-3 -5 0
-4 -5 0
-186 1 2 0
-187 2 3 4 5 0
186 -1 0
186 -2 0
187 -3 0
187 -4 0
187 -5 0
-1 31 0
-1 6 0
-2 32 0
-2 7 0
-3 33 0
-3 8 0
-4 34 0
-4 9 0
-5 35 0
-5 10 0
-188 -189 0
-6 -7 0
-8 -9 0
-8 -10 0
-9 -10 0
-188 6 7 0
-189 7 8 9 10 0
188 -6 0
188 -7 0
189 -8 0
189 -9 0
189 -10 0
-6 1 11 0
-6 1 36 0
-6 11 36 0
-7 2 12 0
-7 2 37 0
-7 12 37 0
-8 3 13 0
-8 3 38 0
-8 13 38 0
-9 4 14 0
-9 4 39 0
-9 14 39 0
-10 5 15 0
-10 5 40 0
-10 15 40 0
-6 -1 -11 -36 0
-7 -2 -12 -37 0
-8 -3 -13 -38 0
-9 -4 -14 -39 0
-10 -5 -15 -40 0
-190 -191 0
-11 -12 0
-13 -14 0
-13 -15 0
-14 -15 0
-190 11 12 0
-191 12 13 14 15 0
190 -11 0
190 -12 0
191 -13 0
191 -14 0
191 -15 0
-11 6 16 0
-11 6 41 0
-11 16 41 0
-12 7 17 0
-12 7 42 0
-12 17 42 0
-13 8 18 0
-13 8 43 0
-13 18 43 0
-14 9 19 0
-14 9 44 0
-14 19 44 0
-15 10 20 0
-15 10 45 0
-15 20 45 0
-11 -6 -16 -41 0
-12 -7 -17 -42 0
-13 -8 -18 -43 0
-14 -9 -19 -44 0
-15 -10 -20 -45 0
-192 -193 0
-16 -17 0
-18 -19 0
-18 -20 0
-19 -20 0
-192 16 17 0
-193 17 18 19 20 0
192 -16 0
192 -17 0
193 -18 0
193 -19 0
193 -20 0
-16 11 21 0
-16 11 46 0
-16 21 46 0
-17 12 22 0
-17 12 47 0
-17 22 47 0
-18 13 23 0
-18 13 48 0
-18 23 48 0
-19 14 24 0
-19 14 49 0
-19 24 49 0
-20 15 25 0
-20 15 50 0
-20 25 50 0
-16 -11 -21 -46 0
-17 -12 -22 -47 0
-18 -13 -23 -48 0
-19 -14 -24 -49 0
-20 -15 -25 -50 0
-194 -195 0
-21 -22 0
-23 -24 0
-23 -25 0
-24 -25 0
-194 21 22 0
-195 22 23 24 25 0
194 -21 0
194 -22 0
195 -23 0
195 -24 0
195 -25 0
-21 16 26 0
-21 16 51 0
-21 26 51 0
-22 17 27 0
-22 17 52 0
-22 27 52 0
-23 18 28 0
-23 18 53 0
-23 28 53 0
-24 19 29 0
-24 19 54 0
-24 29 54 0
-25 20 30 0
-25 20 55 0
-25 30 55 0
-21 -16 -26 -51 0
-22 -17 -27 -52 0
-23 -18 -28 -53 0
-24 -19 -29 -54 0
-25 -20 -30 -55 0
-196 -197 0
-26 -27 0
-28 -29 0
-28 -30 0
-29 -30 0
-196 26 27 0
-197 27 28 29 30 0
196 -26 0
196 -27 0
197 -28 0
197 -29 0
197 -30 0
-26 56 0
-26 21 0
-27 57 0
-27 22 0
-28 58 0
-28 23 0
-29 59 0
-29 24 0
-30 60 0
-30 25 0
-198 -199 0
-31 -32 0
-33 -34 0
-33 -35 0
-34 -35 0
-198 31 32 0
-199 32 33 34 35 0
198 -31 0
198 -32 0
199 -33 0
199 -34 0
199 -35 0
-31 61 36 0
-31 61 1 0
-31 36 1 0
-32 62 37 0
-32 62 2 0
-32 37 2 0
-33 63 38 0
-33 63 3 0
-33 38 3 0
-34 64 39 0
-34 64 4 0
-34 39 4 0
-35 65 40 0
-35 65 5 0
-35 40 5 0
-31 -61 -36 -1 0
-32 -62 -37 -2 0
-33 -63 -38 -3 0
-34 -64 -39 -4 0
-35 -65 -40 -5 0
-37 0
-38 0
-39 0
-40 0
36 0
66 41 6 31 0
-66 -41 0
-66 -6 0
-66 -31 0
-41 -6 0
-41 -31 0
-6 -31 0
-41 0
-43 0
-44 0
-45 0
42 0
72 47 12 37 0
-72 -47 0
-72 -12 0
-72 -37 0
-47 -12 0
-47 -37 0
-12 -37 0
-204 -205 0
-46 -47 0
-48 -49 0
-48 -50 0
-49 -50 0
-204 46 47 0
-205 47 48 49 50 0
204 -46 0
204 -47 0
205 -48 0
205 -49 0
205 -50 0
-46 76 51 16 0
-46 76 51 41 0
-46 76 16 41 0
-46 51 16 41 0
-47 77 52 17 0
-47 77 52 42 0
-47 77 17 42 0
-47 52 17 42 0
-48 78 53 18 0
-48 78 53 43 0
-48 78 18 43 0
-48 53 18 43 0
-49 79 54 19 0
-49 79 54 44 0
-49 79 19 44 0
-49 54 19 44 0
-50 80 55 20 0
-50 80 55 45 0
-50 80 20 45 0
-50 55 20 45 0
-46 -76 -51 -16 0
-46 -76 -51 -41 0
-46 -76 -16 -41 0
-46 -51 -16 -41 0
-47 -77 -52 -17 0
-47 -77 -52 -42 0
-47 -77 -17 -42 0
-47 -52 -17 -42 0
-48 -78 -53 -18 0
-48 -78 -53 -43 0
-48 -78 -18 -43 0
-48 -53 -18 -43 0
-49 -79 -54 -19 0
-49 -79 -54 -44 0
-49 -79 -19 -44 0
-49 -54 -19 -44 0
-50 -80 -55 -20 0
-50 -80 -55 -45 0
-50 -80 -20 -45 0
-50 -55 -20 -45 0
-206 -207 0
-51 -52 0
-53 -54 0
-53 -55 0
-54 -55 0
-206 51 52 0
-207 52 53 54 55 0
206 -51 0
206 -52 0
207 -53 0
207 -54 0
207 -55 0
-51 81 56 21 0
-51 81 56 46 0
-51 81 21 46 0
-51 56 21 46 0
-52 82 57 22 0
-52 82 57 47 0
-52 82 22 47 0
-52 57 22 47 0
-53 83 58 23 0
-53 83 58 48 0
-53 83 23 48 0
-53 58 23 48 0
-54 84 59 24 0
-54 84 59 49 0
-54 84 24 49 0
-54 59 24 49 0
-55 85 60 25 0
-55 85 60 50 0
-55 85 25 50 0
-55 60 25 50 0
-51 -81 -56 -21 0
-51 -81 -56 -46 0
-51 -81 -21 -46 0
-51 -56 -21 -46 0
-52 -82 -57 -22 0
-52 -82 -57 -47 0
-52 -82 -22 -47 0
-52 -57 -22 -47 0
-53 -83 -58 -23 0
-53 -83 -58 -48 0
-53 -83 -23 -48 0
-53 -58 -23 -48 0
-54 -84 -59 -24 0
-54 -84 -59 -49 0
-54 -84 -24 -49 0
-54 -59 -24 -49 0
-55 -85 -60 -25 0
-55 -85 -60 -50 0
-55 -85 -25 -50 0
-55 -60 -25 -50 0
-208 -209 0
-56 -57 0
-58 -59 0
-58 -60 0
-59 -60 0
-208 56 57 0
-209 57 58 59 60 0
208 -56 0
208 -57 0
209 -58 0
209 -59 0
209 -60 0
-56 86 51 0
-56 86 26 0
-56 51 26 0
-57 87 52 0
-57 87 27 0
-57 52 27 0
-58 88 53 0
-58 88 28 0
-58 53 28 0
-59 89 54 0
-59 89 29 0
-59 54 29 0
-60 90 55 0
-60 90 30 0
-60 55 30 0
-56 -86 -51 -26 0
-57 -87 -52 -27 0
-58 -88 -53 -28 0
-59 -89 -54 -29 0
-60 -90 -55 -30 0
-210 -211 0
-61 -62 0
-63 -64 0
-63 -65 0
-64 -65 0
-210 61 62 0
-211 62 63 64 65 0
210 -61 0
210 -62 0
211 -63 0
211 -64 0
211 -65 0
-61 91 66 0
-61 91 31 0
-61 66 31 0
-62 92 67 0
-62 92 32 0
-62 67 32 0
-63 93 68 0
-63 93 33 0
-63 68 33 0
-64 94 69 0
-64 94 34 0
-64 69 34 0
-65 95 70 0
-65 95 35 0
-65 70 35 0
-61 -91 -66 -31 0
-62 -92 -67 -32 0
-63 -93 -68 -33 0
-64 -94 -69 -34 0
-65 -95 -70 -35 0
-212 -213 0
-66 -67 0
-68 -69 0
-68 -70 0
-69 -70 0
-212 66 67 0
-213 67 68 69 70 0
212 -66 0
212 -67 0
213 -68 0
213 -69 0
213 -70 0
-66 96 71 36 0
-66 96 71 61 0
-66 96 36 61 0
-66 71 36 61 0
-67 97 72 37 0
-67 97 72 62 0
-67 97 37 62 0
-67 72 37 62 0
-68 98 73 38 0
-68 98 73 63 0
-68 98 38 63 0
-68 73 38 63 0
-69 99 74 39 0
-69 99 74 64 0
-69 99 39 64 0
-69 74 39 64 0
-70 100 75 40 0
-70 100 75 65 0
-70 100 40 65 0
-70 75 40 65 0
-66 -96 -71 -36 0
-66 -96 -71 -61 0
-66 -96 -36 -61 0
-66 -71 -36 -61 0
-67 -97 -72 -37 0
-67 -97 -72 -62 0
-67 -97 -37 -62 0
-67 -72 -37 -62 0
-68 -98 -73 -38 0
-68 -98 -73 -63 0
-68 -98 -38 -63 0
-68 -73 -38 -63 0
-69 -99 -74 -39 0
-69 -99 -74 -64 0
-69 -99 -39 -64 0
-69 -74 -39 -64 0
-70 -100 -75 -40 0
-70 -100 -75 -65 0
-70 -100 -40 -65 0
-70 -75 -40 -65 0
-214 -215 0
-71 -72 0
-73 -74 0
-73 -75 0
-74 -75 0
-214 71 72 0
-215 72 73 74 75 0
214 -71 0
214 -72 0
215 -73 0
215 -74 0
215 -75 0
-71 101 76 41 0
-71 101 76 66 0
-71 101 41 66 0
-71 76 41 66 0
-72 102 77 42 0
-72 102 77 67 0
-72 102 42 67 0
-72 77 42 67 0
-73 103 78 43 0
-73 103 78 68 0
-73 103 43 68 0
-73 78 43 68 0
-74 104 79 44 0
-74 104 79 69 0
-74 104 44 69 0
-74 79 44 69 0
-75 105 80 45 0
-75 105 80 70 0
-75 105 45 70 0
-75 80 45 70 0
-71 -101 -76 -41 0
-71 -101 -76 -66 0
-71 -101 -41 -66 0
-71 -76 -41 -66 0
-72 -102 -77 -42 0
-72 -102 -77 -67 0
-72 -102 -42 -67 0
-72 -77 -42 -67 0
-73 -103 -78 -43 0
-73 -103 -78 -68 0
-73 -103 -43 -68 0
-73 -78 -43 -68 0
-74 -104 -79 -44 0
-74 -104 -79 -69 0
-74 -104 -44 -69 0
-74 -79 -44 -69 0
-75 -105 -80 -45 0
-75 -105 -80 -70 0
-75 -105 -45 -70 0
-75 -80 -45 -70 0
-77 0
-78 0
-79 0
-80 0
76 0
106 81 46 71 0
-106 -81 0
-106 -46 0
-106 -71 0
-81 -46 0
-81 -71 0
-46 -71 0
-218 -219 0
-81 -82 0
-83 -84 0
-83 -85 0
-84 -85 0
-218 81 82 0
-219 82 83 84 85 0
218 -81 0
218 -82 0
219 -83 0
219 -84 0
219 -85 0
-81 111 86 51 0
-81 111 86 76 0
-81 111 51 76 0
-81 86 51 76 0
-82 112 87 52 0
-82 112 87 77 0
-82 112 52 77 0
-82 87 52 77 0
-83 113 88 53 0
-83 113 88 78 0
-83 113 53 78 0
-83 88 53 78 0
-84 114 89 54 0
-84 114 89 79 0
-84 114 54 79 0
-84 89 54 79 0
-85 115 90 55 0
-85 115 90 80 0
-85 115 55 80 0
-85 90 55 80 0
-81 -111 -86 -51 0
-81 -111 -86 -76 0
-81 -111 -51 -76 0
-81 -86 -51 -76 0
-82 -112 -87 -52 0
-82 -112 -87 -77 0
-82 -112 -52 -77 0
-82 -87 -52 -77 0
-83 -113 -88 -53 0
-83 -113 -88 -78 0
-83 -113 -53 -78 0
-83 -88 -53 -78 0
-84 -114 -89 -54 0
-84 -114 -89 -79 0
-84 -114 -54 -79 0
-84 -89 -54 -79 0
-85 -115 -90 -55 0
-85 -115 -90 -80 0
-85 -115 -55 -80 0
-85 -90 -55 -80 0
-220 -221 0
-86 -87 0
-88 -89 0
-88 -90 0
-89 -90 0
-220 86 87 0
-221 87 88 89 90 0
220 -86 0
220 -87 0
221 -88 0
221 -89 0
221 -90 0
-86 116 81 0
-86 116 56 0
-86 81 56 0
-87 117 82 0
-87 117 57 0
-87 82 57 0
-88 118 83 0
-88 118 58 0
-88 83 58 0
-89 119 84 0
-89 119 59 0
-89 84 59 0
-90 120 85 0
-90 120 60 0
-90 85 60 0
-86 -116 -81 -56 0
-87 -117 -82 -57 0
-88 -118 -83 -58 0
-89 -119 -84 -59 0
-90 -120 -85 -60 0
-91 0
-92 0
-93 0
-95 0
94 0
124 99 64 0
-124 -99 0
-124 -64 0
-99 -64 0
-224 -225 0
-96 -97 0
-98 -99 0
-98 -100 0
-99 -100 0
-224 96 97 0
-225 97 98 99 100 0
224 -96 0
224 -97 0
225 -98 0
225 -99 0
225 -100 0
-96 126 101 66 0
-96 126 101 91 0
-96 126 66 91 0
-96 101 66 91 0
-97 127 102 67 0
-97 127 102 92 0
-97 127 67 92 0
-97 102 67 92 0
-98 128 103 68 0
-98 128 103 93 0
-98 128 68 93 0
-98 103 68 93 0
-99 129 104 69 0
-99 129 104 94 0
-99 129 69 94 0
-99 104 69 94 0
-100 130 105 70 0
-100 130 105 95 0
-100 130 70 95 0
-100 105 70 95 0
-96 -126 -101 -66 0
-96 -126 -101 -91 0
-96 -126 -66 -91 0
-96 -101 -66 -91 0
-97 -127 -102 -67 0
-97 -127 -102 -92 0
-97 -127 -67 -92 0
-97 -102 -67 -92 0
-98 -128 -103 -68 0
-98 -128 -103 -93 0
-98 -128 -68 -93 0
-98 -103 -68 -93 0
-99 -129 -104 -69 0
-99 -129 -104 -94 0
-99 -129 -69 -94 0
-99 -104 -69 -94 0
-100 -130 -105 -70 0
-100 -130 -105 -95 0
-100 -130 -70 -95 0
-100 -105 -70 -95 0
-226 -227 0
-101 -102 0
-103 -104 0
-103 -105 0
-104 -105 0
-226 101 102 0
-227 102 103 104 105 0
226 -101 0
226 -102 0
227 -103 0
227 -104 0
227 -105 0
-101 131 106 71 0
-101 131 106 96 0
-101 131 71 96 0
-101 106 71 96 0
-102 132 107 72 0
-102 132 107 97 0
-102 132 72 97 0
-102 107 72 97 0
-103 133 108 73 0
-103 133 108 98 0
-103 133 73 98 0
-103 108 73 98 0
-104 134 109 74 0
-104 134 109 99 0
-104 134 74 99 0
-104 109 74 99 0
-105 135 110 75 0
-105 135 110 100 0
-105 135 75 100 0
-105 110 75 100 0
-101 -131 -106 -71 0
-101 -131 -106 -96 0
-101 -131 -71 -96 0
-101 -106 -71 -96 0
-102 -132 -107 -72 0
-102 -132 -107 -97 0
-102 -132 -72 -97 0
-102 -107 -72 -97 0
-103 -133 -108 -73 0
-103 -133 -108 -98 0
-103 -133 -73 -98 0
-103 -108 -73 -98 0
-104 -134 -109 -74 0
-104 -134 -109 -99 0
-104 -134 -74 -99 0
-104 -109 -74 -99 0
-105 -135 -110 -75 0
-105 -135 -110 -100 0
-105 -135 -75 -100 0
-105 -110 -75 -100 0
-228 -229 0
-106 -107 0
-108 -109 0
-108 -110 0
-109 -110 0
-228 106 107 0
-229 107 108 109 110 0
228 -106 0
228 -107 0
229 -108 0
229 -109 0
229 -110 0
-106 136 111 76 0
-106 136 111 101 0
-106 136 76 101 0
-106 111 76 101 0
-107 137 112 77 0
-107 137 112 102 0
-107 137 77 102 0
-107 112 77 102 0
-108 138 113 78 0
-108 138 113 103 0
-108 138 78 103 0
-108 113 78 103 0
-109 139 114 79 0
-109 139 114 104 0
-109 139 79 104 0
-109 114 79 104 0
-110 140 115 80 0
-110 140 115 105 0
-110 140 80 105 0
-110 115 80 105 0
-106 -136 -111 -76 0
-106 -136 -111 -101 0
-106 -136 -76 -101 0
-106 -111 -76 -101 0
-107 -137 -112 -77 0
-107 -137 -112 -102 0
-107 -137 -77 -102 0
-107 -112 -77 -102 0
-108 -138 -113 -78 0
-108 -138 -113 -103 0
-108 -138 -78 -103 0
-108 -113 -78 -103 0
-109 -139 -114 -79 0
-109 -139 -114 -104 0
-109 -139 -79 -104 0
-109 -114 -79 -104 0
-110 -140 -115 -80 0
-110 -140 -115 -105 0
-110 -140 -80 -105 0
-110 -115 -80 -105 0
-230 -231 0
-111 -112 0
-113 -114 0
-113 -115 0
-114 -115 0
-230 111 112 0
-231 112 113 114 115 0
230 -111 0
230 -112 0
231 -113 0
231 -114 0
231 -115 0
-111 141 116 81 0
-111 141 116 106 0
-111 141 81 106 0
-111 116 81 106 0
-112 142 117 82 0
-112 142 117 107 0
-112 142 82 107 0
-112 117 82 107 0
-113 143 118 83 0
-113 143 118 108 0
-113 143 83 108 0
-113 118 83 108 0
-114 144 119 84 0
-114 144 119 109 0
-114 144 84 109 0
-114 119 84 109 0
-115 145 120 85 0
-115 145 120 110 0
-115 145 85 110 0
-115 120 85 110 0
-111 -141 -116 -81 0
-111 -141 -116 -106 0
-111 -141 -81 -106 0
-111 -116 -81 -106 0
-112 -142 -117 -82 0
-112 -142 -117 -107 0
-112 -142 -82 -107 0
-112 -117 -82 -107 0
-113 -143 -118 -83 0
-113 -143 -118 -108 0
-113 -143 -83 -108 0
-113 -118 -83 -108 0
-114 -144 -119 -84 0
-114 -144 -119 -109 0
-114 -144 -84 -109 0
-114 -119 -84 -109 0
-115 -145 -120 -85 0
-115 -145 -120 -110 0
-115 -145 -85 -110 0
-115 -120 -85 -110 0
-232 -233 0
-116 -117 0
-118 -119 0
-118 -120 0
-119 -120 0
-232 116 117 0
-233 117 118 119 120 0
232 -116 0
232 -117 0
233 -118 0
233 -119 0
233 -120 0
-116 146 111 0
-116 146 86 0
-116 111 86 0
-117 147 112 0
-117 147 87 0
-117 112 87 0
-118 148 113 0
-118 148 88 0
-118 113 88 0
-119 149 114 0
-119 149 89 0
-119 114 89 0
-120 150 115 0
-120 150 90 0
-120 115 90 0
-116 -146 -111 -86 0
-117 -147 -112 -87 0
-118 -148 -113 -88 0
-119 -149 -114 -89 0
-120 -150 -115 -90 0
-121 0
-122 0
-123 0
-124 0
125 0
155 130 95 0
-155 -130 0
-155 -95 0
-130 -95 0
-236 -237 0
-126 -127 0
-128 -129 0
-128 -130 0
-129 -130 0
-236 126 127 0
-237 127 128 129 130 0
236 -126 0
236 -127 0
237 -128 0
237 -129 0
237 -130 0
-126 156 131 96 0
-126 156 131 121 0
-126 156 96 121 0
-126 131 96 121 0
-127 157 132 97 0
-127 157 132 122 0
-127 157 97 122 0
-127 132 97 122 0
-128 158 133 98 0
-128 158 133 123 0
-128 158 98 123 0
-128 133 98 123 0
-129 159 134 99 0
-129 159 134 124 0
-129 159 99 124 0
-129 134 99 124 0
-130 160 135 100 0
-130 160 135 125 0
-130 160 100 125 0
-130 135 100 125 0
-126 -156 -131 -96 0
-126 -156 -131 -121 0
-126 -156 -96 -121 0
-126 -131 -96 -121 0
-127 -157 -132 -97 0
-127 -157 -132 -122 0
-127 -157 -97 -122 0
-127 -132 -97 -122 0
-128 -158 -133 -98 0
-128 -158 -133 -123 0
-128 -158 -98 -123 0
-128 -133 -98 -123 0
-129 -159 -134 -99 0
-129 -159 -134 -124 0
-129 -159 -99 -124 0
-129 -134 -99 -124 0
-130 -160 -135 -100 0
-130 -160 -135 -125 0
-130 -160 -100 -125 0
-130 -135 -100 -125 0
-131 0
-132 0
-134 0
-135 0
133 0
163 138 103 128 0
-163 -138 0
-163 -103 0
-163 -128 0
-138 -103 0
-138 -128 0
-103 -128 0
-240 -241 0
-136 -137 0
-138 -139 0
-138 -140 0
-139 -140 0
-240 136 137 0
-241 137 138 139 140 0
240 -136 0
240 -137 0
241 -138 0
241 -139 0
241 -140 0
-136 166 141 106 0
-136 166 141 131 0
-136 166 106 131 0
-136 141 106 131 0
-137 167 142 107 0
-137 167 142 132 0
-137 167 107 132 0
-137 142 107 132 0
-138 168 143 108 0
-138 168 143 133 0
-138 168 108 133 0
-138 143 108 133 0
-139 169 144 109 0
-139 169 144 134 0
-139 169 109 134 0
-139 144 109 134 0
-140 170 145 110 0
-140 170 145 135 0
-140 170 110 135 0
-140 145 110 135 0
-136 -166 -141 -106 0
-136 -166 -141 -131 0
-136 -166 -106 -131 0
-136 -141 -106 -131 0
-137 -167 -142 -107 0
-137 -167 -142 -132 0
-137 -167 -107 -132 0
-137 -142 -107 -132 0
-138 -168 -143 -108 0
-138 -168 -143 -133 0
-138 -168 -108 -133 0
-138 -143 -108 -133 0
-139 -169 -144 -109 0
-139 -169 -144 -134 0
-139 -169 -109 -134 0
-139 -144 -109 -134 0
-140 -170 -145 -110 0
-140 -170 -145 -135 0
-140 -170 -110 -135 0
-140 -145 -110 -135 0
-141 0
-143 0
-144 0
-145 0
142 0
172 147 112 137 0
-172 -147 0
-172 -112 0
-172 -137 0
-147 -112 0
-147 -137 0
-112 -137 0
-244 -245 0
-146 -147 0
-148 -149 0
-148 -150 0
-149 -150 0
-244 146 147 0
-245 147 148 149 150 0
244 -146 0
244 -147 0
245 -148 0
245 -149 0
245 -150 0
-146 176 141 0
-146 176 116 0
-146 141 116 0
-147 177 142 0
-147 177 117 0
-147 142 117 0
-148 178 143 0
-148 178 118 0
-148 143 118 0
-149 179 144 0
-149 179 119 0
-149 144 119 0
-150 180 145 0
-150 180 120 0
-150 145 120 0
-146 -176 -141 -116 0
-147 -177 -142 -117 0
-148 -178 -143 -118 0
-149 -179 -144 -119 0
-150 -180 -145 -120 0
-151 0
-152 0
-154 0
-155 0
153 0
123 158 0
-123 -158 0
-248 -249 0
-156 -157 0
-158 -159 0
-158 -160 0
-159 -160 0
-248 156 157 0
-249 157 158 159 160 0
248 -156 0
248 -157 0
249 -158 0
249 -159 0
249 -160 0
-156 126 161 0
-156 126 151 0
-156 161 151 0
-157 127 162 0
-157 127 152 0
-157 162 152 0
-158 128 163 0
-158 128 153 0
-158 163 153 0
-159 129 164 0
-159 129 154 0
-159 164 154 0
-160 130 165 0
-160 130 155 0
-160 165 155 0
-156 -126 -161 -151 0
-157 -127 -162 -152 0
-158 -128 -163 -153 0
-159 -129 -164 -154 0
-160 -130 -165 -155 0
-250 -251 0
-161 -162 0
-163 -164 0
-163 -165 0
-164 -165 0
-250 161 162 0
-251 162 163 164 165 0
250 -161 0
250 -162 0
251 -163 0
251 -164 0
251 -165 0
-161 131 166 0
-161 131 156 0
-161 166 156 0
-162 132 167 0
-162 132 157 0
-162 167 157 0
-163 133 168 0
-163 133 158 0
-163 168 158 0
-164 134 169 0
-164 134 159 0
-164 169 159 0
-165 135 170 0
-165 135 160 0
-165 170 160 0
-161 -131 -166 -156 0
-162 -132 -167 -157 0
-163 -133 -168 -158 0
-164 -134 -169 -159 0
-165 -135 -170 -160 0
-166 0
-167 0
-168 0
-169 0
170 0
140 175 165 0
-140 -175 0
-140 -165 0
-175 -165 0
-171 0
-172 0
-173 0
-175 0
174 0
144 179 169 0
-144 -179 0
-144 -169 0
-179 -169 0
-256 -257 0
-176 -177 0
-178 -179 0
-178 -180 0
-179 -180 0
-256 176 177 0
-257 177 178 179 180 0
256 -176 0
256 -177 0
257 -178 0
257 -179 0
257 -180 0
-176 146 0
-176 171 0
-177 147 0
-177 172 0
-178 148 0
-178 173 0
-179 149 0
-179 174 0
-180 150 0
-180 175 0
11 71 101 161 0
62 67 72 82 87 0
97 102 107 112 117 0
17 47 107 137 0
8 68 98 128 158 0
129 139 149 0
9 69 99 129 159 0
14 74 104 164 0
19 49 109 139 0
10 70 100 130 160 0
15 75 105 165 0